This is Ipopt version 3.10.0, running with linear solver ma27.

Number of nonzeros in equality constraint Jacobian...:        2
Number of nonzeros in inequality constraint Jacobian.:        4
Number of nonzeros in Lagrangian Hessian.............:        0

Total number of variables............................:        2
                     variables with only lower bounds:        0
                variables with lower and upper bounds:        2
                     variables with only upper bounds:        0
Total number of equality constraints.................:        1
Total number of inequality constraints...............:        2
        inequality constraints with only lower bounds:        0
   inequality constraints with lower and upper bounds:        0
        inequality constraints with only upper bounds:        2

iter    objective    inf_pr   inf_du lg(mu)  ||d||  lg(rg) alpha_du alpha_pr  ls
   0  9.0000000e+04 5.00e-01 3.00e+02   0.0 0.00e+00    -  0.00e+00 0.00e+00   0
Warning: Cutting back alpha due to evaluation error
Warning: Cutting back alpha due to evaluation error
   1  8.9841017e+04 5.00e-01 2.99e+02  -3.8 4.46e+02    -  3.98e-01 8.95e-04f  3
   2  8.9384293e+04 4.98e-01 2.01e+04   0.3 3.59e+02    -  6.64e-01 3.63e-03f  1
Warning: Cutting back alpha due to evaluation error
   3  9.5043426e+04 2.19e-01 7.41e+04   2.2 1.85e+02    -  1.00e+00 5.00e-01h  2
Warning: Cutting back alpha due to evaluation error
Warning: Cutting back alpha due to evaluation error
   4  9.9436762e+04 1.65e-01 4.25e+04   2.1 8.29e+01    -  1.00e+00 2.50e-01h  3
Warning: Cutting back alpha due to evaluation error
   5  1.0667852e+05 8.62e-02 1.66e+04   1.3 6.48e+01    -  1.00e+00 5.00e-01h  2
   6  1.1541848e+05 3.95e-03 1.40e+01   0.1 3.53e+01    -  1.00e+00 1.00e+00h  1
Warning: Cutting back alpha due to evaluation error
   7  1.1565252e+05 1.93e-03 8.59e+02  -1.6 1.02e+00    -  1.00e+00 5.00e-01h  2
   8  1.1588021e+05 9.02e-07 7.29e+00  -2.7 5.02e-01    -  1.00e+00 9.92e-01h  1
Warning: Cutting back alpha due to evaluation error
Warning: Cutting back alpha due to evaluation error
   9  1.1587914e+05 6.78e-07 1.81e+01  -4.5 8.72e-03    -  1.00e+00 2.48e-01f  3
Warning: Cutting back alpha due to evaluation error
Warning: Cutting back alpha due to evaluation error
iter    objective    inf_pr   inf_du lg(mu)  ||d||  lg(rg) alpha_du alpha_pr  ls
  10  1.1587793e+05 5.10e-07 1.62e+01  -4.9 9.98e-03    -  1.00e+00 2.48e-01f  3
  11  1.1587447e+05 4.41e-09 2.03e-04  -5.0 7.14e-03    -  1.00e+00 9.91e-01f  1

Number of Iterations....: 11

                                   (scaled)                 (unscaled)
Objective...............:   1.1587446666539041e+05    1.1587446666539041e+05
Dual infeasibility......:   2.0290138370010800e-04    2.0290138370010800e-04
Constraint violation....:   4.4115751055315539e-09    4.4115751055315539e-09
Complementarity.........:   6.6406717170173577e-05    6.6406717170173577e-05
Overall NLP error.......:   7.6502339076652344e-07    2.0290138370010800e-04


Number of objective function evaluations             = 12
Number of objective gradient evaluations             = 12
Number of equality constraint evaluations            = 23
Number of inequality constraint evaluations          = 12
Number of equality constraint Jacobian evaluations   = 12
Number of inequality constraint Jacobian evaluations = 12
Number of Lagrangian Hessian evaluations             = 0
Total CPU secs in IPOPT (w/o function evaluations)   =      0.021
Total CPU secs in NLP function evaluations           =     40.221

EXIT: Optimal Solution Found.
